
100
29721

329 429
984 1084
960 1060
919 1019
790 890
876 976
1 101
627 727
248 348
731 831
433 533
561 661
543 643
577 677
828 928
982 1082
346 446
807 907
890 990
393 493
124 224
498 598
765 865
525 625
185 285
706 806
325 425
887 987
169 269
594 694
386 486
985 1085
139 239
881 981
418 518
372 472
209 309
495 595
930 1030
1000 1100
940 1040
612 712
237 337
508 608
650 750
296 396
987 1087
85 185
235 335
204 304
168 268
64 164
240 340
374 474
940 1040
545 645
625 725
349 449
171 271
564 664
729 829
86 186
650 750
210 310
690 790
356 456
148 248
141 241
793 893
541 641
86 186
906 1006
277 377
280 380
3 103
301 401
560 660
898 998
299 399
498 598
80 180
687 787
301 401
376 476
271 371
819 919
981 1081
138 238
452 552
107 207
751 851
908 1008
127 227
683 783
304 404
451 551
573 673
385 485
652 752
327 427
